&CONTROL
  calculation = 'scf'
  outdir = './out/'
  prefix = 'aiida'
  pseudo_dir = './pseudo/'
  verbosity = 'high'
  disk_io = 'none'
/
&SYSTEM
  A = 5.431
  ecutrho = 120
  ecutwfc = 15
  ibrav = 2
  nat = 2
  nbnd = 10
  ntyp = 1
/
&ELECTRONS
  conv_thr =   1.00d-06
/
ATOMIC_SPECIES
Si  28.0855 Si.pbe-n-rrkjus_psl.1.0.0.UPF
ATOMIC_POSITIONS angstrom
Si  0.0000000000 0.0000000000 0.0000000000 
Si  1.3577500000 1.3577500000 1.3577500000 
K_POINTS automatic
2 2 2 0 0 0
